
List of user-set options:

                                    Name   Value                used
                           compl_inf_tol = 1                     yes
                         constr_viol_tol = 1                     yes
                            dual_inf_tol = 1000                  yes
                           linear_solver = ma97                  yes
                              ma86_small = 1e-30                  no
                                  ma86_u = 0.0001                 no
                              ma97_order = best                  yes
                              ma97_small = 1e-30                 yes
                            ma97_switch1 = at_start              yes
                            ma97_switch2 = od_hd_reuse           yes
                                  ma97_u = 1e-06                 yes
                               ma97_umax = 0.5                   yes
                                max_iter = 2000                  yes
                    max_refinement_steps = 20                    yes
                    min_refinement_steps = 5                     yes
                                 mu_init = 1e-06                 yes
           mu_superlinear_decrease_power = 1.25                  yes
                   nlp_scaling_min_value = 1e-08                 yes
                        option_file_name = Preset_Case:_86_NCP.opt  yes
                             output_file = ./tmp/Preset_Case:_86_NCP.output  yes
                      print_user_options = yes                   yes
        required_infeasibility_reduction = 1                      no
                                     tol = 1e-08                 yes
                   warm_start_bound_frac = 1e-20                 yes
                   warm_start_bound_push = 1e-20                 yes
                   warm_start_init_point = yes                   yes
              warm_start_mult_bound_push = 1e-20                 yes
                warm_start_mult_init_max = 1e+40                 yes
             warm_start_slack_bound_frac = 1e-20                 yes
             warm_start_slack_bound_push = 1e-20                 yes

******************************************************************************
This program contains Ipopt, a library for large-scale nonlinear optimization.
 Ipopt is released as open source code under the Eclipse Public License (EPL).
         For more information visit http://projects.coin-or.org/Ipopt
******************************************************************************

This is Ipopt version 3.12.10, running with linear solver ma97.

Number of nonzeros in equality constraint Jacobian...:   117140
Number of nonzeros in inequality constraint Jacobian.:      213
Number of nonzeros in Lagrangian Hessian.............:    47462

Total number of variables............................:    29971
                     variables with only lower bounds:    11312
                variables with lower and upper bounds:    15132
                     variables with only upper bounds:        0
Total number of equality constraints.................:    29864
Total number of inequality constraints...............:       25
        inequality constraints with only lower bounds:        4
   inequality constraints with lower and upper bounds:        0
        inequality constraints with only upper bounds:       21

iter    objective    inf_pr   inf_du lg(mu)  ||d||  lg(rg) alpha_du alpha_pr  ls
   0 -7.3390841e-02 1.84e-01 1.62e+02  -6.0 0.00e+00    -  0.00e+00 0.00e+00   0
In iteration 0, 2 Slacks too small, adjusting variable bounds
   1 -7.3390841e-02 1.84e-01 1.62e+02  -6.0 4.03e+02   2.0 3.86e-08 2.49e-12f  1
In iteration 1, 1 Slack too small, adjusting variable bound
   2 -7.3390841e-02 1.84e-01 2.67e+02  -6.0 2.90e+01   1.5 7.44e-08 6.50e-12h  1
   3 -7.3390841e-02 1.84e-01 3.46e+03  -6.0 1.29e+03   1.0 3.17e-08 2.39e-10f  1
   4 -7.3390842e-02 1.84e-01 3.85e+03  -6.0 2.27e+03   0.6 2.26e-08 1.64e-08f  1
   5 -7.3390852e-02 1.84e-01 5.34e+02  -6.0 3.27e+03   0.1 8.97e-11 1.72e-07f  1
   6 -7.3390870e-02 1.84e-01 1.41e+04  -6.0 3.29e+03  -0.4 2.00e-06 2.82e-07f  1
   7 -7.3391358e-02 1.84e-01 6.48e+03  -6.0 3.29e+03  -0.9 3.37e-07 7.58e-06f  1
   8 -7.3393835e-02 1.84e-01 3.81e+04  -6.0 3.29e+03  -1.3 5.53e-06 3.89e-05f  1
   9 -7.3394721e-02 1.84e-01 6.40e+04  -6.0 3.29e+03  -0.9 3.85e-06 1.42e-05f  1
iter    objective    inf_pr   inf_du lg(mu)  ||d||  lg(rg) alpha_du alpha_pr  ls
  10 -7.3400005e-02 1.84e-01 1.30e+05  -6.0 3.28e+03  -1.4 1.08e-05 8.96e-05f  1
  11 -7.3401516e-02 1.84e-01 1.77e+05  -6.0 3.27e+03  -1.0 4.12e-06 2.57e-05h  1
  12 -7.3406166e-02 1.84e-01 1.90e+05  -6.0 3.26e+03  -1.4 7.62e-05 9.39e-05f  1
  13 -7.3410552e-02 1.84e-01 5.99e+04  -6.0 3.25e+03  -1.0 1.49e-04 8.20e-05f  1
  14 -7.3415237e-02 1.84e-01 2.43e+04  -6.0 3.23e+03  -1.5 2.34e-04 1.29e-04f  1
  15 -7.3417529e-02 1.84e-01 4.42e+05  -6.0 3.21e+03  -1.1 3.10e-04 4.88e-05f  1
  16 -7.3419026e-02 1.84e-01 5.47e+05  -6.0 3.19e+03  -1.5 2.72e-04 7.25e-05f  1
  17 -7.3446698e-02 1.84e-01 1.20e+06  -6.0 3.19e+03  -1.1 1.09e-03 6.48e-04f  1
  18 -7.3438589e-02 1.84e-01 1.20e+06  -6.0 2.98e+03  -1.6 3.75e-06 8.12e-06f  2
  19 -7.2876101e-02 1.84e-01 1.18e+06  -6.0 3.03e+03  -1.2 1.72e-07 1.25e-05h  1
iter    objective    inf_pr   inf_du lg(mu)  ||d||  lg(rg) alpha_du alpha_pr  ls
  20 -7.2875960e-02 1.84e-01 1.18e+06  -6.0 2.26e+03  -1.6 5.77e-07 1.33e-10h 21
  21r-7.2875960e-02 1.84e-01 1.00e+03  -0.7 0.00e+00  -1.2 0.00e+00 3.00e-07R 12
  22r-7.2852336e-02 1.84e-01 2.48e+03  -0.7 4.65e+04    -  1.01e-07 2.19e-08f  1
  23r-7.2615322e-02 1.84e-01 2.47e+03  -0.7 3.06e+04    -  4.10e-08 2.65e-07f  1
  24r-7.2615322e-02 1.84e-01 9.99e+02  -0.7 0.00e+00    -  0.00e+00 2.83e-08R  2
  25r-7.2616496e-02 1.84e-01 3.68e+03  -0.7 6.56e+03    -  4.50e-06 6.15e-08f  1
  26 -7.2616493e-02 1.84e-01 3.69e+02  -6.0 1.07e+02    -  4.20e-03 1.14e-05h  1
  27r-7.2616493e-02 1.84e-01 9.99e+02  -0.7 0.00e+00    -  0.00e+00 2.22e-08R  2
  28r-7.2403428e-02 1.84e-01 9.99e+02  -0.7 7.80e+05    -  2.77e-08 5.21e-08f  1
  29r-7.2414736e-02 1.84e-01 2.41e+03  -0.7 6.13e+03    -  4.99e-06 5.73e-07f  1
iter    objective    inf_pr   inf_du lg(mu)  ||d||  lg(rg) alpha_du alpha_pr  ls
  30 -7.2414736e-02 1.84e-01 1.06e+05  -6.0 1.29e+02    -  3.31e-02 1.57e-07h  2
  31 -7.2554056e-02 1.83e-01 5.52e+04  -6.0 3.23e+03    -  2.89e-04 5.70e-04h  1
  32 -7.2789754e-02 1.83e-01 1.06e+05  -6.0 2.82e+03    -  2.09e-06 1.53e-03h  1
  33 -7.2932351e-02 1.83e-01 1.03e+05  -6.0 2.50e+03    -  2.00e-03 1.92e-03h  1
  34 -7.2935415e-02 1.71e-01 1.08e+05  -6.0 2.21e+03    -  1.56e-07 4.72e-03f  1
  35r-7.2935415e-02 1.71e-01 9.99e+02  -0.7 0.00e+00    -  0.00e+00 9.39e-08R  2
  36r-7.2941080e-02 1.71e-01 1.65e+03  -0.7 4.87e+03    -  1.22e-05 2.72e-07f  1
  37r-7.2941080e-02 1.71e-01 9.99e+02  -0.7 0.00e+00    -  0.00e+00 5.32e-08R  2
  38r-7.2943402e-02 1.71e-01 2.67e+03  -0.7 5.34e+03    -  1.23e-05 1.63e-07f  1
  39 -7.2943414e-02 1.71e-01 5.77e+07  -6.0 1.86e+01    -  3.96e-01 3.01e-05h  1
iter    objective    inf_pr   inf_du lg(mu)  ||d||  lg(rg) alpha_du alpha_pr  ls
  40 -7.2992294e-02 1.71e-01 1.06e+09  -6.0 4.00e+03    -  3.83e-05 7.03e-04h  1
  41 -7.3061606e-02 1.70e-01 1.06e+09  -6.0 1.19e+03    -  1.07e-02 1.64e-03h  1
  42 -7.3461903e-02 1.55e-01 1.04e+09  -6.0 1.11e+03    -  2.52e-03 1.64e-02h  1
  43 -7.3541231e-02 1.39e-01 1.02e+09  -6.0 6.97e+02    -  1.89e-02 1.61e-02h  1
  44 -7.3544891e-02 1.74e-01 9.80e+08  -6.0 5.18e+02    -  2.72e-02 4.41e-02h  2
  45 -7.3548519e-02 1.73e-01 9.57e+08  -6.0 2.99e+02    -  4.94e-02 2.35e-02h  4
  46 -7.3553091e-02 1.71e-01 9.32e+08  -6.0 2.62e+02    -  6.48e-02 2.54e-02h  4
  47 -7.3556178e-02 1.68e-01 9.12e+08  -6.0 2.33e+02    -  8.72e-02 2.22e-02h  4
  48 -7.3556349e-02 1.66e-01 9.03e+08  -6.0 2.16e+02    -  1.10e-01 1.00e-02h  5
  49 -7.3555237e-02 1.66e-01 8.98e+08  -6.0 2.14e+02    -  1.40e-01 4.93e-03h  6
iter    objective    inf_pr   inf_du lg(mu)  ||d||  lg(rg) alpha_du alpha_pr  ls
  50 -7.3554785e-02 1.65e-01 8.98e+08  -6.0 2.20e+02    -  1.42e-01 6.38e-04h  9
  51 -7.3550888e-02 1.65e-01 8.95e+08  -6.0 2.39e+02    -  1.59e-07 2.66e-03f  7
  52 -7.3550025e-02 1.65e-01 8.95e+08  -6.0 1.26e+02  -1.7 2.71e-02 1.72e-04h  1
  53 -7.3444739e-02 1.67e-01 8.56e+08  -6.0 2.31e+02    -  1.43e-06 4.31e-02h  2
  54 -7.3443586e-02 1.67e-01 8.56e+08  -6.0 1.07e+02  -2.2 5.21e-02 2.97e-04h  1
  55 -7.3441175e-02 1.67e-01 8.55e+08  -6.0 2.05e+02    -  2.56e-06 2.01e-03h  1
  56 -7.3441121e-02 1.67e-01 8.54e+08  -6.0 1.23e+02  -2.7 1.03e-01 1.25e-05h  1
  57 -7.3362382e-02 1.74e-01 8.08e+08  -6.0 2.07e+02    -  1.28e-04 5.46e-02h  1
  58 -7.3362346e-02 1.74e-01 8.08e+08  -6.0 1.12e+02  -3.1 8.82e-06 1.16e-05h  1
  59 -7.3082768e-02 1.94e-01 7.38e+08  -6.0 1.89e+02    -  3.56e-07 8.64e-02h  2
iter    objective    inf_pr   inf_du lg(mu)  ||d||  lg(rg) alpha_du alpha_pr  ls
  60 -7.3064281e-02 1.93e-01 7.33e+08  -6.0 7.18e+01  -2.7 4.36e-01 6.61e-03h  1
  61 -7.2822986e-02 1.86e-01 6.80e+08  -6.0 1.64e+02    -  3.02e-06 7.24e-02h  1
  62 -7.2817567e-02 1.85e-01 6.79e+08  -6.0 7.18e+01  -3.2 1.64e-05 1.86e-03h  1
  63 -7.2817269e-02 1.85e-01 6.79e+08  -6.0 1.87e+03    -  3.76e-10 1.97e-05h  1
  64 -7.2815718e-02 1.85e-01 6.79e+08  -6.0 6.09e+01  -2.8 3.37e-01 3.43e-04h  1
  65 -7.0700531e-02 8.86e-02 2.52e+08  -6.0 1.44e+02    -  6.98e-05 6.28e-01H  1
  66 -7.0699912e-02 8.84e-02 2.52e+08  -6.0 1.60e+01    -  4.64e-01 1.53e-03h  1
  67 -7.0601951e-02 6.08e-02 1.74e+08  -6.0 2.55e+01    -  4.50e-01 3.10e-01h  1
  68 -6.9618778e-02 4.16e-02 4.84e+04  -6.0 1.89e+01    -  2.34e-01 1.00e+00H  1
  69 -6.9631108e-02 2.13e-01 3.13e+04  -6.0 3.11e+00    -  5.70e-01 1.00e+00h  1
iter    objective    inf_pr   inf_du lg(mu)  ||d||  lg(rg) alpha_du alpha_pr  ls
  70 -6.9987983e-02 5.09e-02 6.26e+03  -6.0 5.44e+00    -  7.79e-01 7.62e-01h  1
  71r-6.9987983e-02 5.09e-02 1.00e+03  -1.8 0.00e+00    -  0.00e+00 4.55e-07R  5
  72r-7.0010270e-02 4.45e-02 1.08e+03  -1.8 9.63e+02    -  2.98e-04 1.25e-04f  1
  73 -7.0011187e-02 3.86e-02 1.96e+07  -6.0 2.63e-01    -  3.31e-01 1.33e-01h  1
  74 -7.0020381e-02 5.52e-03 1.81e+08  -6.0 2.33e-01    -  1.33e-01 8.57e-01h  1
  75 -7.0033907e-02 2.85e-04 9.39e+06  -6.0 1.25e-01    -  3.46e-01 9.48e-01h  1
  76 -7.0055345e-02 7.47e-06 6.82e+00  -6.0 1.66e-01    -  9.53e-01 1.00e+00h  1
  77 -7.0816164e-02 1.97e-03 3.38e+01  -6.0 5.12e+00    -  8.02e-01 1.00e+00H  1
  78 -7.1446807e-02 9.53e-03 3.93e+01  -6.0 8.03e+00    -  7.35e-01 3.60e-01h  1
  79 -7.1990109e-02 1.49e-02 3.87e+01  -6.0 2.66e+01    -  3.88e-01 8.48e-02h  3
iter    objective    inf_pr   inf_du lg(mu)  ||d||  lg(rg) alpha_du alpha_pr  ls
  80 -7.2508822e-02 1.92e-02 4.74e+01  -6.0 5.50e+01    -  4.69e-01 5.12e-02h  3
  81 -7.2766317e-02 1.97e-02 4.70e+01  -6.0 3.14e+02    -  1.51e-02 1.25e-02h  4
  82 -7.2818081e-02 1.97e-02 5.42e+01  -6.0 8.37e+02    -  5.49e-02 1.51e-03h  6
  83 -7.2863582e-02 1.97e-02 5.46e+01  -6.0 1.32e+03    -  3.78e-03 1.01e-03h  6
  84 -7.2885651e-02 2.74e-05 3.30e+01  -6.0 1.34e-01  -3.2 4.37e-01 1.00e+00h  1
  85 -7.3045183e-02 8.58e-04 3.29e+01  -6.0 2.22e+02    -  6.03e-02 8.46e-03h  1
  86 -7.4410560e-02 1.72e-01 3.65e+01  -6.0 1.06e+03    -  4.31e-02 5.62e-02f  1
  87 -7.6420066e-02 1.80e-01 3.01e+01  -6.0 1.28e+02    -  1.01e-04 1.13e-01h  1
  88 -7.7329198e-02 2.08e-01 3.77e+01  -6.0 1.36e+02    -  2.87e-01 5.50e-02f  1
  89 -7.8812912e-02 3.22e-01 6.08e+01  -6.0 2.09e+02    -  3.16e-01 8.65e-02f  1
iter    objective    inf_pr   inf_du lg(mu)  ||d||  lg(rg) alpha_du alpha_pr  ls
  90 -8.0654750e-02 5.67e-01 1.36e+02  -6.0 3.33e+02    -  2.88e-01 1.13e-01h  1
  91 -8.4033887e-02 1.38e+00 7.06e+02  -6.0 4.67e+02    -  5.24e-01 2.22e-01h  1
  92 -9.0264992e-02 7.83e+00 1.41e+02  -6.0 1.49e+03    -  2.44e-01 3.60e-01h  1
  93 -9.2767748e-02 9.98e+00 5.62e+02  -6.0 1.88e+03    -  2.04e-01 1.35e-01h  1
  94 -9.4667528e-02 9.79e+00 2.96e+03  -6.0 1.56e+03    -  4.46e-01 1.18e-01h  1
  95 -9.6833943e-02 9.61e+00 3.64e+03  -6.0 3.06e+03    -  2.07e-01 9.56e-02h  1
  96 -9.8582093e-02 9.43e+00 5.32e+03  -6.0 3.26e+03    -  2.95e-01 7.31e-02h  1
  97 -1.0280815e-01 1.39e+01 4.07e+03  -6.0 4.24e+03    -  8.27e-02 1.73e-01h  1
  98 -1.0566803e-01 5.04e+01 4.91e+03  -6.0 1.32e+04    -  5.56e-02 1.09e-01h  1
  99 -1.0569505e-01 4.88e+01 3.71e+03  -6.0 1.19e+01  -3.7 3.47e-02 3.11e-02h  1
iter    objective    inf_pr   inf_du lg(mu)  ||d||  lg(rg) alpha_du alpha_pr  ls
 100 -1.0570212e-01 4.76e+01 3.61e+03  -6.0 7.97e+00  -4.2 2.55e-02 2.59e-02h  1
 101 -1.0573305e-01 3.87e+01 3.39e+03  -6.0 9.05e+00  -4.7 3.98e-02 1.87e-01h  1
 102 -1.0581536e-01 1.54e+01 2.74e+03  -6.0 4.68e+00  -5.1 2.24e-01 6.02e-01h  1
 103 -1.0647493e-01 1.34e+00 2.37e+02  -6.0 7.35e+00  -5.6 1.03e-01 9.13e-01h  1
 104 -1.0702770e-01 6.55e-01 1.16e+02  -6.0 1.29e+01  -6.1 4.67e-01 5.12e-01h  1
 105 -1.0728622e-01 4.25e-01 8.52e+01  -6.0 1.31e+01  -6.6 8.00e-01 3.51e-01h  1
 106 -1.0785357e-01 4.09e-01 5.29e+01  -6.0 2.59e+01  -7.0 4.34e-01 6.81e-01h  1
 107 -1.0811007e-01 3.13e-01 1.94e+01  -6.0 6.98e+01  -7.5 9.89e-01 2.92e-01f  1
 108 -1.1001808e-01 6.13e-01 5.27e+00  -6.0 2.03e+02  -8.0 6.70e-01 8.84e-01h  1
 109 -1.1055790e-01 6.12e-01 4.80e+00  -6.0 5.98e+02  -8.5 2.03e-01 1.17e-01h  1
iter    objective    inf_pr   inf_du lg(mu)  ||d||  lg(rg) alpha_du alpha_pr  ls
 110 -1.1293171e-01 4.70e+00 2.94e+01  -6.0 2.11e+03  -9.0 2.93e-01 2.20e-01h  1
 111 -1.1437441e-01 3.89e+00 9.94e+00  -6.0 9.16e+02  -8.5 1.68e-01 2.68e-01h  1
 112 -1.1497032e-01 3.96e+00 2.61e+02  -6.0 1.55e+03  -9.0 5.07e-01 1.02e-01h  1
 113 -1.1564631e-01 2.81e+00 1.51e+02  -6.0 2.74e+02  -8.6 1.97e-01 2.92e-01h  1
 114 -1.1604622e-01 2.62e+00 4.04e+02  -6.0 7.39e+02  -8.2 1.00e+00 1.41e-01h  1
 115 -1.1672486e-01 2.27e+00 8.46e+02  -6.0 4.58e+02  -8.6 1.00e+00 1.82e-01h  1
 116 -1.1922666e-01 2.37e+00 7.53e+02  -6.0 8.01e+02  -9.1 6.71e-01 3.53e-01h  1
 117 -1.1980862e-01 2.36e+00 1.16e+03  -6.0 1.04e+03  -8.7 5.79e-01 1.16e-01h  1
 118 -1.2404794e-01 9.59e+00 1.95e+02  -6.0 1.00e+03  -9.2 4.42e-01 6.21e-01h  1
 119 -1.2449678e-01 8.07e+00 2.40e+02  -6.0 1.44e+03  -8.7 2.22e-01 1.64e-01h  1
iter    objective    inf_pr   inf_du lg(mu)  ||d||  lg(rg) alpha_du alpha_pr  ls
 120 -1.2565778e-01 5.61e+00 4.88e+02  -6.0 9.43e+02  -9.2 3.87e-01 3.08e-01h  1
 121 -1.2682482e-01 7.74e+00 2.44e+03  -6.0 9.92e+02  -8.8 1.25e-02 6.27e-01h  1
 122 -1.2781680e-01 4.35e+00 6.40e+02  -6.0 6.43e+02  -9.3 5.36e-01 4.91e-01h  1
 123 -1.2834748e-01 1.58e+00 4.28e+03  -6.0 2.60e+02  -8.8 4.80e-01 6.83e-01h  1
 124 -1.2848803e-01 1.47e+00 4.72e+05  -6.0 1.46e+03  -9.3 3.17e-03 7.12e-02h  1
 125 -1.2887312e-01 2.33e+00 4.12e+05  -6.0 5.05e+03  -9.8 2.07e-01 1.27e-01h  1
 126 -1.2910063e-01 2.06e+00 3.63e+05  -6.0 7.08e+02  -9.4 8.89e-02 1.20e-01h  1
 127 -1.2920199e-01 2.10e+00 3.54e+05  -6.0 2.94e+03  -9.8 1.78e-01 2.44e-02h  1
 128 -1.2926104e-01 1.90e+00 3.20e+05  -6.0 8.46e+02  -8.5 5.20e-02 9.56e-02h  1
 129 -1.2937100e-01 1.56e+00 2.63e+05  -6.0 3.36e+02  -8.1 1.35e-02 1.78e-01f  1
iter    objective    inf_pr   inf_du lg(mu)  ||d||  lg(rg) alpha_du alpha_pr  ls
 130 -1.2948065e-01 1.27e+00 2.14e+05  -6.0 1.17e+02  -7.7 4.00e-02 1.85e-01h  1
 131 -1.2954298e-01 1.14e+00 1.92e+05  -6.0 5.09e+01  -7.2 1.83e-01 1.05e-01h  1
 132 -1.2954191e-01 8.06e-01 5.07e+06  -6.0 9.03e+00  -6.8 1.73e-03 2.92e-01h  1
 133 -1.2973166e-01 6.03e+00 2.74e+03  -6.0 4.35e+01  -7.3 1.86e-02 1.00e+00f  1
 134 -1.3042111e-01 3.59e+01 1.12e+03  -6.0 8.31e+01  -6.9 1.88e-01 6.04e-01h  1
 135 -1.3028714e-01 2.44e+01 3.62e+02  -6.0 3.89e+01  -7.3 7.06e-01 6.74e-01h  1
 136 -1.3067502e-01 1.58e+01 1.73e+02  -6.0 5.18e+01  -7.8 7.07e-01 5.09e-01h  1
 137 -1.3088377e-01 8.37e+00 8.80e+01  -6.0 9.29e+01  -8.3 8.04e-01 4.78e-01h  1
 138 -1.3151338e-01 1.50e+00 1.44e+01  -6.0 2.51e+02  -8.8 1.00e+00 8.66e-01h  1
 139 -1.3270686e-01 4.86e-01 4.69e+00  -6.0 6.73e+02  -9.2 9.61e-01 9.26e-01h  1
iter    objective    inf_pr   inf_du lg(mu)  ||d||  lg(rg) alpha_du alpha_pr  ls
 140 -1.3416172e-01 7.53e-01 2.63e+01  -6.0 1.66e+03  -9.7 1.44e-01 6.56e-01h  1
 141 -1.3437202e-01 7.23e-01 3.47e+01  -6.0 1.72e+03 -10.2 2.61e-02 1.06e-01h  1
 142 -1.3433817e-01 7.86e-01 3.27e+01  -6.0 1.02e+03  -8.9 1.33e-01 5.88e-02h  1
 143 -1.3440731e-01 7.04e-01 1.02e+02  -6.0 5.70e+02  -9.3 1.01e-01 5.30e-01f  1
 144 -1.3441824e-01 6.38e-01 9.18e+01  -6.0 1.77e+02  -8.0 5.95e-03 1.09e-01h  1
 145 -1.3447923e-01 1.08e-01 1.83e+01  -6.0 6.10e+01  -7.6 8.30e-01 1.00e+00h  1
 146 -1.3446438e-01 1.16e-01 1.25e-01  -6.0 4.59e+01  -8.1 1.00e+00 1.00e+00h  1
 147 -1.3449349e-01 6.01e-02 1.08e+00  -6.0 9.26e+01  -8.5 4.30e-01 5.10e-01h  1
 148 -1.3459351e-01 8.47e-01 4.45e+00  -6.0 2.06e+02  -9.0 1.00e+00 1.00e+00f  1
 149 -1.3460207e-01 9.09e-01 4.75e+00  -6.0 8.87e+02  -9.5 1.67e-01 7.42e-02h  1
iter    objective    inf_pr   inf_du lg(mu)  ||d||  lg(rg) alpha_du alpha_pr  ls
 150 -1.3508255e-01 1.13e+00 2.91e+01  -6.0 1.09e+03 -10.0 1.00e+00 6.92e-01h  1
 151 -1.3522963e-01 2.58e+00 3.71e+01  -6.0 1.96e+03 -10.5 3.18e-01 2.61e-01h  1
 152 -1.3546492e-01 7.33e+01 1.09e+01  -6.0 6.76e+03 -10.9 1.76e-01 2.63e-01h  1
 153 -1.3555589e-01 1.53e+00 2.68e+02  -6.0 3.50e+02  -9.6 4.49e-01 1.00e+00h  1
 154 -1.3567189e-01 1.24e+00 9.60e+01  -6.0 3.11e+02  -9.2 6.10e-01 5.15e-01h  1
 155 -1.3615817e-01 3.97e+01 1.18e+03  -6.0 1.69e+03  -9.7 3.90e-01 8.38e-01h  1
 156 -1.3613407e-01 3.97e+01 1.18e+03  -6.0 3.62e+05    -  9.08e-07 2.96e-04h  4
 157 -1.3619316e-01 3.88e+01 4.85e+02  -6.0 4.65e+03 -10.1 2.32e-01 2.53e-02h  1
 158 -1.3641518e-01 3.60e+01 1.39e+02  -6.0 1.13e+04    -  3.77e-02 8.03e-02h  1
 159 -1.3645967e-01 3.57e+01 3.33e+02  -6.0 9.16e+03 -10.6 3.04e-02 9.35e-03h  1
iter    objective    inf_pr   inf_du lg(mu)  ||d||  lg(rg) alpha_du alpha_pr  ls
 160 -1.3652222e-01 3.52e+01 3.37e+02  -6.0 2.56e+04    -  1.44e-02 1.37e-02h  1
 161 -1.3680946e-01 2.08e+01 3.15e+03  -6.0 1.34e+03 -10.2 4.01e-02 4.36e-01h  1
 162 -1.3693976e-01 1.78e+01 9.09e+04  -6.0 1.99e+02  -7.0 7.90e-03 1.51e-01h  1
 163 -1.3703291e-01 1.72e+01 8.19e+04  -6.0 2.19e+01  -6.6 2.42e-01 1.38e-01h  1
 164 -1.3716624e-01 1.13e+01 6.38e+04  -6.0 3.08e+01  -7.1 1.52e-01 3.58e-01h  1
 165 -1.3731885e-01 2.46e+00 1.46e+04  -6.0 2.39e+01  -7.6 1.00e+00 7.72e-01h  1
 166 -1.3740271e-01 3.43e+00 7.74e+03  -6.0 4.86e+01  -8.1 1.00e+00 4.65e-01h  1
 167 -1.3743337e-01 3.13e+00 6.75e+03  -6.0 1.07e+02  -8.5 7.69e-01 1.29e-01h  1
 168 -1.3805850e-01 4.17e+01 3.08e+03  -6.0 4.70e+03    -  2.81e-01 5.42e-01h  1
 169 -1.3806527e-01 1.95e+01 2.72e+03  -6.0 1.08e+02  -9.0 4.89e-02 5.34e-01h  1
iter    objective    inf_pr   inf_du lg(mu)  ||d||  lg(rg) alpha_du alpha_pr  ls
 170 -1.3780575e-01 7.20e-01 1.22e+02  -6.0 2.29e+02  -9.5 5.28e-01 1.00e+00h  1
 171 -1.3782710e-01 1.67e+01 8.52e+01  -6.0 2.95e+03    -  1.51e-01 3.34e-01h  1
 172 -1.3775730e-01 3.66e+00 1.76e+01  -6.0 1.20e+03    -  7.55e-01 1.00e+00h  1
 173 -1.3770159e-01 7.08e+00 1.94e+01  -6.0 6.29e+02 -10.0 4.35e-01 1.00e+00h  1
 174 -1.3773036e-01 2.71e+00 9.36e+00  -6.0 4.10e+02    -  7.80e-01 1.00e+00h  1
 175 -1.3772871e-01 1.06e+00 1.06e+00  -6.0 1.45e+02    -  1.00e+00 1.00e+00h  1
 176 -1.3772905e-01 4.29e-03 2.29e-01  -6.0 1.16e+01    -  8.48e-01 1.00e+00h  1
 177 -1.3773256e-01 2.67e-01 1.67e-02  -6.0 7.52e+01    -  1.00e+00 1.00e+00h  1
 178 -1.3773122e-01 1.76e-02 2.26e-03  -6.0 2.61e+01    -  1.00e+00 1.00e+00h  1
 179 -1.3773116e-01 1.74e-05 3.77e-06  -6.0 7.49e-01    -  1.00e+00 1.00e+00h  1
iter    objective    inf_pr   inf_du lg(mu)  ||d||  lg(rg) alpha_du alpha_pr  ls
 180 -1.3773116e-01 7.35e-10 6.10e-11  -6.0 4.78e-03    -  1.00e+00 1.00e+00h  1
 181 -1.3824018e-01 6.78e-01 1.28e+01  -7.5 2.62e+03    -  2.17e-01 2.07e-01f  1
 182 -1.3861855e-01 1.10e+00 1.64e+01  -7.5 2.52e+03    -  2.15e-01 2.15e-01h  1
 183 -1.3878630e-01 1.09e+00 3.79e+01  -7.5 2.25e+03    -  3.07e-01 1.34e-01h  1
 184 -1.3889208e-01 1.22e+00 3.55e+01  -7.5 2.48e+03 -10.4 6.52e-02 8.63e-02h  1
 185 -1.3900291e-01 1.58e+00 5.08e+01  -7.5 8.65e+03 -10.0 3.80e-03 1.80e-02h  1
 186 -1.3912152e-01 2.99e+00 9.12e+01  -7.5 5.25e+03 -10.5 6.42e-02 5.88e-02h  1
 187 -1.3933363e-01 2.27e+00 1.02e+02  -7.5 4.17e+02 -10.1 1.33e-01 3.73e-01h  1
 188 -1.3938212e-01 3.67e+00 9.40e+01  -7.5 4.21e+03    -  3.66e-05 7.39e-02h  1
 189 -1.3965828e-01 3.50e+01 1.16e+02  -7.5 2.65e+03    -  1.50e-01 5.40e-01h  1
iter    objective    inf_pr   inf_du lg(mu)  ||d||  lg(rg) alpha_du alpha_pr  ls
 190 -1.3969683e-01 2.94e+01 6.53e+01  -7.5 1.57e+03    -  3.03e-01 1.62e-01h  1
 191 -1.3972737e-01 2.64e+01 6.12e+01  -7.5 2.42e+03    -  8.83e-02 1.04e-01h  1
 192 -1.3980508e-01 2.13e+01 2.84e+01  -7.5 9.59e+02  -9.6 4.05e-01 1.94e-01h  1
 193 -1.3986196e-01 1.48e+01 3.69e+01  -7.5 1.16e+03    -  4.90e-02 3.27e-01h  1
 194 -1.3987603e-01 1.33e+01 2.59e+01  -7.5 8.56e+02    -  1.82e-01 1.02e-01h  1
 195 -1.4000305e-01 8.32e+00 5.28e+01  -7.5 7.62e+02    -  2.94e-01 9.93e-01h  1
 196 -1.4002808e-01 5.77e+00 3.51e+01  -7.5 3.52e+02    -  3.33e-01 3.07e-01h  1
 197 -1.4010373e-01 7.85e-01 2.92e+01  -7.5 2.48e+02    -  5.78e-01 9.31e-01h  1
 198 -1.4010918e-01 1.77e+00 2.88e+01  -7.5 9.74e+02  -8.3 1.27e-02 1.20e-02h  1
 199 -1.4019621e-01 8.11e-01 7.20e+01  -7.5 2.28e+02    -  6.80e-01 1.00e+00h  1
iter    objective    inf_pr   inf_du lg(mu)  ||d||  lg(rg) alpha_du alpha_pr  ls
 200 -1.4023733e-01 1.73e+00 2.02e+02  -7.5 5.33e+02    -  2.04e-01 4.46e-01h  1
 201 -1.4028245e-01 9.04e-01 4.90e+02  -7.5 7.80e+00  -8.8 9.78e-01 4.78e-01f  1
 202 -1.4029999e-01 7.49e-01 1.31e+03  -7.5 7.45e+01    -  8.74e-01 1.70e-01h  1
 203 -1.4033839e-01 4.38e+00 8.54e+02  -7.5 1.32e+03    -  4.41e-01 3.81e-01h  1
 204 -1.4034465e-01 4.13e+00 1.27e+03  -7.5 2.42e+02  -9.3 1.00e+00 5.70e-02h  1
 205 -1.4041863e-01 2.75e+01 8.00e+02  -7.5 2.17e+03    -  8.45e-02 6.73e-01h  1
 206 -1.4041972e-01 2.76e+01 8.19e+02  -7.5 2.34e+04    -  4.69e-03 8.69e-03h  1
 207 -1.4042088e-01 2.74e+01 3.80e+02  -7.5 1.84e+03    -  4.69e-01 7.70e-03h  1
 208 -1.4042318e-01 2.69e+01 1.86e+03  -7.5 7.88e+03    -  2.59e-02 1.66e-02h  1
 209 -1.4045691e-01 9.58e+00 1.62e+03  -7.5 9.57e+02    -  4.30e-01 7.68e-01h  1
iter    objective    inf_pr   inf_du lg(mu)  ||d||  lg(rg) alpha_du alpha_pr  ls
 210 -1.4046260e-01 7.38e+00 1.31e+03  -7.5 1.44e+03    -  2.30e-02 2.31e-01h  1
 211 -1.4048311e-01 1.28e+01 3.26e+02  -7.5 1.82e+03    -  3.69e-01 4.52e-01h  1
 212 -1.4051578e-01 7.91e+01 9.74e+02  -7.5 2.61e+03    -  3.90e-01 9.13e-01h  1
 213 -1.4051592e-01 7.69e+01 9.58e+02  -7.5 2.83e+03    -  7.34e-03 2.91e-02h  1
 214 -1.4050379e-01 6.87e+01 8.53e+02  -7.5 6.57e+03    -  2.13e-02 1.07e-01h  3
 215 -1.4050423e-01 2.77e-01 9.83e+02  -7.5 8.79e+01  -9.7 1.65e-01 1.00e+00h  1
 216 -1.4053388e-01 3.43e+01 3.50e+02  -7.5 2.85e+03    -  2.92e-01 5.84e-01h  1
 217 -1.4054447e-01 6.75e+01 2.80e+02  -7.5 8.57e+03    -  5.42e-03 2.47e-01h  1
 218 -1.4054250e-01 6.70e+01 2.76e+02  -7.5 9.68e+03    -  1.27e-02 8.73e-03h  1
 219 -1.4055090e-01 6.02e+01 2.37e+02  -7.5 3.98e+03    -  1.42e-01 1.05e-01h  1
iter    objective    inf_pr   inf_du lg(mu)  ||d||  lg(rg) alpha_du alpha_pr  ls
 220 -1.4055223e-01 6.03e+01 2.38e+02  -7.5 9.70e+04    -  4.49e-03 8.38e-04h  2
 221 -1.4056675e-01 4.70e+01 2.35e+02  -7.5 1.91e+03    -  4.38e-02 3.58e-01h  1
 222 -1.4059325e-01 5.04e+01 2.46e+02  -7.5 1.67e+03    -  4.66e-02 1.00e+00h  1
 223 -1.4059266e-01 4.59e+01 2.31e+02  -7.5 6.82e+02    -  6.16e-02 9.06e-02h  1
 224 -1.4058786e-01 1.49e+01 1.71e+02  -7.5 5.76e+02    -  2.72e-01 7.39e-01h  1
 225 -1.4058408e-01 1.14e+01 1.70e+02  -7.5 9.17e+02    -  3.78e-03 3.72e-01h  1
 226 -1.4059163e-01 1.43e+01 1.71e+02  -7.5 7.46e+05 -10.2 1.07e-03 5.42e-04f  1
 227 -1.4059171e-01 1.43e+01 4.11e+01  -7.5 1.08e+03    -  8.89e-01 2.34e-03h  1
 228 -1.4059434e-01 5.17e+00 1.67e+01  -7.5 5.14e+02    -  2.31e-01 6.41e-01h  1
 229 -1.4059740e-01 3.39e+00 8.97e+00  -7.5 1.01e+03    -  1.00e+00 3.58e-01h  1
iter    objective    inf_pr   inf_du lg(mu)  ||d||  lg(rg) alpha_du alpha_pr  ls
 230 -1.4059747e-01 3.37e+00 8.92e+00  -7.5 1.46e+03    -  7.21e-02 5.45e-03h  1
 231 -1.4059364e-01 1.44e+00 7.98e+00  -7.5 2.83e+02    -  1.00e+00 1.00e+00h  1
 232 -1.4059238e-01 1.44e+00 7.60e+00  -7.5 8.38e+02    -  1.00e+00 1.13e-01h  3
 233 -1.4059154e-01 1.42e+00 7.29e+00  -7.5 1.01e+03    -  1.00e+00 6.25e-02h  5
 234 -1.4059079e-01 1.41e+00 7.06e+00  -7.5 1.13e+03    -  1.00e+00 5.06e-02h  5
 235 -1.4059014e-01 1.39e+00 6.88e+00  -7.5 1.23e+03    -  1.00e+00 3.93e-02h  5
 236 -1.4058959e-01 1.38e+00 6.73e+00  -7.5 1.31e+03    -  1.00e+00 3.12e-02h  5
 237 -1.4058913e-01 1.36e+00 6.61e+00  -7.5 1.38e+03    -  1.00e+00 2.50e-02h  5
 238 -1.4058874e-01 1.35e+00 6.51e+00  -7.5 1.44e+03    -  1.00e+00 2.03e-02h  5
 239 -1.4058839e-01 1.34e+00 6.42e+00  -7.5 1.49e+03    -  1.52e-01 1.70e-02h  5
iter    objective    inf_pr   inf_du lg(mu)  ||d||  lg(rg) alpha_du alpha_pr  ls
 240 -1.4058628e-01 1.42e+00 6.46e+00  -7.5 1.53e+03    -  1.00e+00 6.25e-02h  5
 241 -1.4058600e-01 1.41e+00 6.39e+00  -7.5 1.69e+03    -  1.00e+00 1.22e-02h  5
 242 -1.4058000e-01 3.61e+00 1.08e+01  -7.5 1.72e+03    -  1.90e-01 2.19e-01w  1
 243 -1.4053175e-01 8.30e+01 2.33e+02  -7.5 2.32e+03    -  6.53e-01 9.38e-01w  1
 244 -1.4052996e-01 8.10e+01 2.27e+02  -7.5 6.11e+03    -  9.33e-02 2.93e-02w  1
 245 -1.4058562e-01 1.40e+00 6.33e+00  -7.5 5.34e+03    -  1.90e-01 1.37e-02h  4
 246 -1.4058469e-01 1.40e+00 6.26e+00  -7.5 1.76e+03    -  1.00e+00 2.49e-02h  6
 247 -1.4058382e-01 1.40e+00 6.18e+00  -7.5 1.83e+03    -  8.69e-02 2.23e-02h  6
 248 -1.4055091e-01 8.39e-01 9.34e+01  -7.5 1.90e+03    -  6.25e-01 4.30e-01H  1
 249 -1.4055234e-01 8.43e-01 9.28e+01  -7.5 1.61e+04 -10.7 2.90e-03 6.58e-03h  1
iter    objective    inf_pr   inf_du lg(mu)  ||d||  lg(rg) alpha_du alpha_pr  ls
 250 -1.4055119e-01 6.68e-01 9.22e+01  -7.5 3.72e+03    -  1.19e-01 6.60e-03H  1
 251 -1.4055029e-01 6.63e-01 9.15e+01  -7.5 3.75e+03    -  6.82e-01 7.76e-03h  7
 252 -1.4055018e-01 6.62e-01 9.14e+01  -7.5 3.79e+03    -  2.65e-01 9.56e-04h 10
 253 -1.4055016e-01 6.62e-01 9.14e+01  -7.5 3.79e+03    -  3.97e-01 1.19e-04h 13
 254 -1.4055016e-01 6.62e-01 9.14e+01  -7.5 3.79e+03 -11.2 4.87e-01 5.97e-05h 14
 255r-1.4055016e-01 6.62e-01 9.99e+02  -0.2 0.00e+00    -  0.00e+00 4.66e-07R 21
 256r-1.4053305e-01 6.62e-01 9.99e+02  -0.2 2.00e+05    -  3.51e-07 9.36e-08f  1
 257 -1.4053266e-01 6.59e-01 1.45e+01  -7.5 3.79e+03    -  7.10e-04 4.32e-03h  6
 258 -1.4053185e-01 6.53e-01 1.64e+01  -7.5 3.81e+03    -  1.58e-01 9.40e-03h  5
 259 -1.4053120e-01 6.49e-01 1.68e+01  -7.5 3.86e+03    -  4.32e-02 6.02e-03h  3
iter    objective    inf_pr   inf_du lg(mu)  ||d||  lg(rg) alpha_du alpha_pr  ls
 260 -1.4053010e-01 6.43e-01 2.16e+01  -7.5 3.89e+03    -  3.57e-01 1.01e-02h  5
 261 -1.4052913e-01 6.37e-01 2.19e+01  -7.5 3.93e+03    -  4.03e-02 8.44e-03h  5
 262 -1.4052776e-01 6.30e-01 2.51e+01  -7.5 3.97e+03    -  2.71e-01 1.17e-02h  5
 263 -1.4052696e-01 6.26e-01 2.56e+01  -7.5 4.03e+03    -  6.16e-02 6.49e-03h  6
 264 -1.4052609e-01 6.22e-01 3.79e+01  -7.5 4.06e+03    -  5.16e-01 6.92e-03h  6
 265 -1.4055190e-01 7.32e+00 2.70e+02  -7.5 8.23e+03    -  1.32e-01 7.91e-02h  1
 266 -1.4055283e-01 7.15e+00 2.63e+02  -7.5 1.01e+03    -  3.29e-03 2.60e-02h  1
 267 -1.4055322e-01 7.05e+00 2.59e+02  -7.5 5.71e+02    -  9.03e-02 1.32e-02h  6
 268 -1.4055413e-01 6.99e+00 2.56e+02  -7.5 2.03e+03    -  6.46e-03 1.05e-02h  5
 269 -1.4055414e-01 6.99e+00 2.57e+02  -7.5 1.15e+03    -  1.04e-01 6.42e-05h 13
iter    objective    inf_pr   inf_du lg(mu)  ||d||  lg(rg) alpha_du alpha_pr  ls
 270 -1.4055414e-01 6.98e+00 2.57e+02  -7.5 1.54e+03    -  2.99e-02 4.98e-05h 13
 271 -1.4055682e-01 6.77e+00 2.47e+02  -7.5 1.56e+03    -  4.06e-02 4.06e-02s 20
 272 -1.4056695e-01 6.81e+00 2.13e+02  -7.5 1.63e+03    -  1.57e-01 1.57e-01s 20
 273 -1.4056694e-01 6.35e+00 2.80e+02  -7.5 6.93e+02    -  7.41e-02 7.41e-02s 20
 274 -1.4056783e-01 4.90e+00 1.82e+02  -7.5 6.39e+02    -  2.72e-01 2.72e-01s 20
 275 -1.4057266e-01 4.71e+00 1.41e+02  -7.5 1.04e+03    -  2.22e-01 2.22e-01s 20
 276 -1.4057568e-01 3.83e+00 1.07e+02  -7.5 5.07e+02    -  2.42e-01 2.42e-01s 20
 277 -1.4058467e-01 4.18e+00 2.73e+01  -7.5 5.77e+02    -  7.45e-01 7.45e-01s 20
 278 -1.4058583e-01 1.72e+00 1.08e+01  -7.5 7.59e+01    -  5.98e-01 5.98e-01s 20
 279 -1.4058716e-01 3.11e-01 2.04e+01  -7.5 7.13e+01    -  1.00e+00 0.00e+00S 20
iter    objective    inf_pr   inf_du lg(mu)  ||d||  lg(rg) alpha_du alpha_pr  ls
 280 -1.4060051e-01 1.73e+01 7.83e+01  -7.5 3.91e+03 -10.7 2.51e-02 2.54e-01h  1
 281 -1.4059792e-01 4.72e-01 5.67e+00  -7.5 1.77e+02 -10.3 4.53e-01 1.00e+00h  1
 282 -1.4060325e-01 3.22e+00 7.02e+00  -7.5 4.07e+02    -  1.00e+00 1.00e+00h  1
 283 -1.4061832e-01 2.69e+01 1.08e+02  -7.5 2.83e+03    -  1.02e-01 4.10e-01h  1
 284 -1.4061110e-01 1.92e+01 6.85e+01  -7.5 1.10e+03    -  9.69e-01 5.00e-01h  2
 285 -1.4061926e-01 1.35e+01 4.98e+01  -7.5 8.86e+02    -  1.00e+00 7.05e-01h  1
 286 -1.4062014e-01 7.88e-02 2.40e+00  -7.5 6.21e+01    -  1.00e+00 1.00e+00h  1
 287 -1.4061999e-01 2.80e-03 7.71e-02  -7.5 1.19e+01    -  8.25e-01 1.00e+00h  1
 288 -1.4062001e-01 2.64e-05 1.85e-04  -7.5 1.14e+00    -  1.00e+00 1.00e+00h  1
 289 -1.4062001e-01 4.19e-08 2.77e-07  -7.5 4.57e-02    -  1.00e+00 1.00e+00h  1
iter    objective    inf_pr   inf_du lg(mu)  ||d||  lg(rg) alpha_du alpha_pr  ls
 290 -1.4062327e-01 9.23e-02 2.40e+00  -9.0 2.59e+02    -  2.88e-01 3.04e-01h  1
 291 -1.4063018e-01 2.10e+01 7.95e+01  -9.0 1.17e+05    -  2.17e-02 8.78e-03h  1
 292 -1.4063789e-01 2.77e+01 1.19e+02  -9.0 3.62e+03    -  1.86e-01 2.32e-01h  1
 293 -1.4064254e-01 2.74e+01 1.26e+02  -9.0 4.34e+03    -  2.91e-01 1.62e-01h  1
 294 -1.4064966e-01 4.42e+01 1.33e+02  -9.0 3.43e+03    -  3.20e-01 3.66e-01h  1
 295 -1.4065356e-01 4.07e+01 2.54e+01  -9.0 1.55e+03    -  1.00e-02 8.19e-01h  1
 296 -1.4065068e-01 1.55e-01 7.70e+00  -9.0 1.02e+02    -  4.01e-02 1.00e+00h  1
 297 -1.4065131e-01 8.47e-02 7.37e-01  -9.0 6.42e+01    -  1.00e+00 1.00e+00h  1
 298 -1.4065129e-01 2.12e-02 8.98e-02  -9.0 3.22e+01    -  1.00e+00 1.00e+00h  1
 299 -1.4065129e-01 6.76e-08 1.75e-05  -9.0 3.78e-02    -  1.00e+00 1.00e+00h  1
iter    objective    inf_pr   inf_du lg(mu)  ||d||  lg(rg) alpha_du alpha_pr  ls
 300 -1.4065129e-01 2.83e-10 2.60e-12  -9.0 2.82e-05    -  1.00e+00 1.00e+00h  1

Number of Iterations....: 300

                                   (scaled)                 (unscaled)
Objective...............:  -1.4065129089319728e-01   -1.4065129089319728e-01
Dual infeasibility......:   2.6012941800601652e-12    2.6012941800601652e-12
Constraint violation....:   2.8297292850934519e-10    2.8297292850934519e-10
Complementarity.........:   9.0909098742894231e-10    9.0909098742894231e-10
Overall NLP error.......:   9.0909098742894231e-10    9.0909098742894231e-10


Number of objective function evaluations             = 708
Number of objective gradient evaluations             = 299
Number of equality constraint evaluations            = 708
Number of inequality constraint evaluations          = 709
Number of equality constraint Jacobian evaluations   = 308
Number of inequality constraint Jacobian evaluations = 308
Number of Lagrangian Hessian evaluations             = 300
Total CPU secs in IPOPT (w/o function evaluations)   =    128.107
Total CPU secs in NLP function evaluations           =      5.852

EXIT: Optimal Solution Found.
